
GUB cover cuts applied:  2
Clique cuts applied:  33
Cover cuts applied:  12
Flow cuts applied:  1
Mixed integer rounding cuts applied:  43
Zero-half cuts applied:  112

Root node processing (before b&c):
  Real time             =    2.92 sec. (2038.08 ticks)
Parallel b&c, 4 threads:
  Real time             =    0.53 sec. (576.30 ticks)
  Sync time (average)   =    0.20 sec.
  Wait time (average)   =    0.00 sec.
                          ------------
Total (root+branch&cut) =    3.46 sec. (2614.38 ticks)
Version identifier: 12.10.0.0 | 2019-11-26 | 843d4de
CPXPARAM_MIP_Interval                            10
CPXPARAM_MIP_Tolerances_AbsMIPGap                0.98999999999999999
Tried aggregator 2 times.
MIP Presolve eliminated 105008 rows and 105078 columns.
MIP Presolve modified 1 coefficients.
Aggregator did 132 substitutions.
Reduced MIP has 9949 rows, 7734 columns, and 30980 nonzeros.
Reduced MIP has 7734 binaries, 0 generals, 0 SOSs, and 0 indicators.
Presolve time = 0.17 sec. (134.58 ticks)
Found incumbent of value 4.000000 after 0.34 sec. (301.94 ticks)
Probing fixed 50 vars, tightened 0 bounds.
Probing changed sense of 104 constraints.
Probing time = 0.02 sec. (14.27 ticks)
Tried aggregator 2 times.
Detecting symmetries...
MIP Presolve eliminated 414 rows and 301 columns.
Aggregator did 59 substitutions.
Reduced MIP has 9476 rows, 7374 columns, and 29496 nonzeros.
Reduced MIP has 7374 binaries, 0 generals, 0 SOSs, and 0 indicators.
Presolve time = 0.05 sec. (51.67 ticks)
Probing time = 0.01 sec. (12.66 ticks)
Clique table members: 18122.
MIP emphasis: balance optimality and feasibility.
MIP search method: dynamic search.
Parallel mode: deterministic, using up to 4 threads.
Root relaxation solution time = 0.23 sec. (228.51 ticks)

        Nodes                                         Cuts/
   Node  Left     Objective  IInf  Best Integer    Best Bound    ItCnt     Gap

*     0+    0                            4.0000       48.0000              --- 
*     0+    0                           13.0000       48.0000           269.23%
      0     0       31.3333   771       13.0000       31.3333     2001  141.03%
      0     0       31.3333   771       13.0000      Cuts: 37     3148  141.03%
*     0+    0                           30.0000       31.3333             4.44%
      0     0       31.3333   771       30.0000      Cuts: 10     4759    4.44%
      0     0       31.3333   771       30.0000      Cuts: 35     7046    4.16%
      0     0       31.3278   771       30.0000      Cuts: 74     7971    4.13%
      0     0       31.2858   771       30.0000     Cuts: 228     9435    4.12%
Detecting symmetries...
      0     0       31.2436   771       30.0000     Cuts: 223    10016    4.12%
      0     0       31.2104   771       30.0000     Cuts: 175    10636    4.03%
      0     0       31.2020   771       30.0000     Cuts: 290    11135    4.01%
      0     0       31.2010   771       30.0000     Cuts: 209    11580    4.00%
      0     0        cutoff             30.0000       30.0000    11580    0.00%
Elapsed time = 4.81 sec. (3549.95 ticks, tree = 0.01 MB, solutions = 3)
the number of Nodes = 0
